\ENCODING=ISO-8859-1
\Problem name: 

Minimize
 obj1: 83 q_00 + 36 q_01 + 31 q_02 + 33 q_03 + 10 q_04 + 97 q_05 + 40 q_06
       + 70 q_07 + 8 q_08 + q_09 + 51 q_10 + 81 q_11 + 81 q_12 + 25 q_13
       + 88 q_14 + 13 q_15 + 57 q_16 + 42 q_17 + 32 q_18 + 43 q_19 + 54 q_20
       + 35 q_21 + 61 q_22 + 89 q_23 + 43 q_24 + 40 q_25 + 53 q_26 + 13 q_27
       + 79 q_28 + 19 q_29 + 69 q_30 + 88 q_31 + 4 q_32 + 77 q_33 + 68 q_34
       + 86 q_35 + 76 q_36 + 3 q_37 + 23 q_38 + 57 q_39 + 33 q_40 + 58 q_41
       + 98 q_42 + 71 q_43 + 35 q_44 + 91 q_45 + 80 q_46 + 50 q_47 + 53 q_48
       + 72 q_49 + 18 q_50 + 72 q_51 + q_52 + 90 q_53 + 9 q_54 + 66 q_55
       + 37 q_56 + 52 q_57 + 34 q_58 + 51 q_59 + 43 q_60 + 69 q_61 + 40 q_62
       + 19 q_63 + 58 q_64 + 34 q_65 + 59 q_66 + 7 q_67 + 46 q_68 + 89 q_69
       + 29 q_70 + 4 q_71 + 84 q_72 + 100 q_73 + 16 q_74 + 97 q_75 + 3 q_76
       + 15 q_77 + 22 q_78 + 4 q_79 + 97 q_80 + 14 q_81 + 19 q_82 + 37 q_83
       + 23 q_84 + 94 q_85 + 6 q_86 + 56 q_87 + 65 q_88 + 69 q_89 + 67 q_90
       + 12 q_91 + 76 q_92 + 18 q_93 + 6 q_94 + 45 q_95 + 98 q_96 + 47 q_97
       + 11 q_98 + 75 q_99 + 39 q_100 + 92 q_101 + 19 q_102 + 26 q_103
       + 68 q_104 + 81 q_105 + 87 q_106 + 67 q_107 + 82 q_108 + 59 q_109
       + 13 q_110 + 47 q_111 + 70 q_112 + 23 q_113 + 60 q_114 + 91 q_115
       + 34 q_116 + 37 q_117 + 26 q_118 + 92 q_119
Subject To
 c51: - 53 q_00 - 33 q_01 - 3 q_02 - 63 q_03 - 4 q_04 - 35 q_05 - 78 q_06
      - 53 q_07 - 9 q_08 - 42 q_09 - 17 q_10 - 45 q_11 - 80 q_12 - 20 q_13
      - 95 q_14 - 60 q_15 - 78 q_16 - 64 q_17 - 56 q_18 - 44 q_19 - 58 q_20
      - 19 q_21 - 87 q_22 - 45 q_23 - 79 q_24 - 53 q_25 - 11 q_26 - 63 q_27
      - 21 q_28 - 64 q_29 - 66 q_30 - 68 q_31 - 49 q_32 - 44 q_33 - 51 q_34
      - 70 q_35 - 17 q_36 - 35 q_37 - 28 q_38 - q_39 - 11 q_40 - 13 q_41
      - 69 q_42 - 86 q_43 - 33 q_44 - 68 q_45 - 5 q_46 - 80 q_47 - 21 q_48
      - 45 q_49 - 7 q_50 - 69 q_51 - 88 q_52 - 89 q_53 - 71 q_54 - 92 q_55
      - 4 q_56 - 30 q_57 - 38 q_58 - 7 q_59 - 76 q_60 - 34 q_61 - 51 q_62
      - 67 q_63 - 89 q_64 - 86 q_65 - 8 q_66 - 22 q_67 - 9 q_68 - 89 q_69
      - 74 q_70 - 40 q_71 - 99 q_72 - 84 q_73 - 62 q_74 - 19 q_75 - 18 q_76
      - 11 q_77 - 55 q_78 - 62 q_79 - 43 q_80 - 83 q_81 - 46 q_82 - 21 q_83
      - 32 q_84 - 39 q_85 - 30 q_86 - 36 q_87 - 76 q_88 - 24 q_89 - 23 q_90
      - 57 q_91 - 15 q_92 - 60 q_93 - 32 q_94 - 70 q_95 - 65 q_96 - 24 q_97
      - 38 q_98 - 100 q_99 - 2 q_100 - 45 q_101 - 65 q_102 - 53 q_103
      - 24 q_104 - 80 q_105 - 53 q_106 - 60 q_107 - 79 q_108 - 29 q_109
      - 35 q_110 - 71 q_111 - 81 q_112 - 75 q_113 - 84 q_114 - 95 q_115
      - 62 q_116 - 56 q_117 - 94 q_118 - 4 q_119 <= -3123
 c52: - 26 q_00 - 76 q_01 - 82 q_02 - 9 q_03 - 29 q_04 - 34 q_05 - 87 q_06
      - 83 q_07 - 43 q_08 - 5 q_09 - 40 q_10 - 14 q_11 - 64 q_12 - 69 q_13
      - 33 q_14 - 46 q_15 - 13 q_16 - 53 q_17 - 61 q_18 - 78 q_19 - 30 q_20
      - 95 q_21 - 55 q_22 - 6 q_23 - 4 q_24 - 96 q_25 - 98 q_26 - 30 q_27
      - 53 q_28 - 94 q_29 - 67 q_30 - 9 q_31 - 5 q_32 - 54 q_33 - 15 q_34
      - 92 q_35 - 85 q_36 - 48 q_37 - 89 q_38 - 15 q_39 - 11 q_40 - 8 q_41
      - 77 q_42 - 31 q_43 - 62 q_44 - 6 q_45 - 65 q_46 - 70 q_47 - 81 q_48
      - 38 q_49 - 58 q_50 - 45 q_51 - 2 q_52 - 9 q_53 - 65 q_54 - 38 q_55
      - 83 q_56 - 47 q_57 - 35 q_58 - 11 q_59 - 16 q_60 - 80 q_61 - 46 q_62
      - 41 q_63 - 94 q_64 - 76 q_65 - 43 q_66 - 12 q_67 - 92 q_68 - 16 q_69
      - 60 q_70 - 59 q_71 - 69 q_72 - 25 q_73 - 43 q_74 - 60 q_75 - 72 q_76
      - 87 q_77 - 81 q_78 - 45 q_79 - 12 q_80 - q_81 - 26 q_82 - 73 q_83
      - 13 q_84 - 38 q_85 - 55 q_86 - 78 q_87 - 20 q_88 - 47 q_89 - 32 q_90
      - 45 q_91 - 73 q_92 - 92 q_93 - 74 q_94 - 40 q_95 - 57 q_96 - 90 q_97
      - 100 q_98 - 93 q_99 - 14 q_100 - 39 q_101 - 62 q_102 - 44 q_103
      - 52 q_104 - 31 q_105 - 46 q_106 - 75 q_107 - 32 q_108 - 10 q_109
      - 75 q_110 - 100 q_111 - 65 q_112 - 44 q_113 - 30 q_114 - 87 q_115
      - 75 q_116 - 8 q_117 - 44 q_118 - 96 q_119 <= -3208
 c53: - 33 q_00 - 36 q_01 - 36 q_02 - 71 q_03 - 10 q_04 - 74 q_05 - 23 q_06
      - 36 q_07 - 14 q_08 - 29 q_09 - 19 q_10 - 44 q_11 - 99 q_12 - 85 q_13
      - 75 q_14 - 49 q_15 - 94 q_16 - 19 q_17 - 94 q_18 - 71 q_19 - 95 q_20
      - 73 q_21 - 33 q_22 - 99 q_23 - 78 q_24 - 81 q_25 - 42 q_26 - 65 q_27
      - 8 q_28 - 5 q_29 - 75 q_30 - 29 q_31 - 39 q_32 - 96 q_33 - 38 q_34
      - 59 q_35 - 58 q_36 - 50 q_37 - 64 q_38 - 92 q_39 - 52 q_40 - 67 q_41
      - 37 q_42 - 54 q_43 - 45 q_44 - 3 q_45 - 11 q_46 - 25 q_47 - 24 q_48
      - 67 q_49 - 70 q_50 - 57 q_51 - 9 q_52 - 10 q_53 - 43 q_54 - 71 q_55
      - 70 q_56 - 42 q_57 - 8 q_58 - 31 q_59 - 20 q_60 - 63 q_61 - 48 q_62
      - 71 q_63 - 80 q_64 - 16 q_65 - 63 q_66 - 3 q_67 - 49 q_68 - 22 q_69
      - 21 q_70 - 97 q_71 - 33 q_72 - 46 q_73 - 25 q_74 - 79 q_75 - 52 q_76
      - 17 q_77 - 90 q_78 - 30 q_79 - 39 q_80 - 71 q_81 - 82 q_82 - 8 q_83
      - 87 q_84 - 25 q_85 - 6 q_86 - 33 q_87 - 34 q_88 - 35 q_89 - 81 q_90
      - 46 q_91 - 65 q_92 - 78 q_93 - 44 q_94 - 28 q_95 - 75 q_96 - 34 q_97
      - 9 q_98 - 2 q_99 - 70 q_100 - 47 q_101 - 23 q_102 - 12 q_103 - 29 q_104
      - 35 q_105 - 20 q_106 - 39 q_107 - 78 q_108 - 72 q_109 - 29 q_110
      - 39 q_111 - 27 q_112 - 3 q_113 - 54 q_114 - 37 q_115 - 7 q_116
      - 37 q_117 - 22 q_118 - 94 q_119 <= -2873
 c54: - 61 q_00 - 92 q_01 - 81 q_02 - 44 q_03 - 97 q_04 - 9 q_05 - 13 q_06
      - 38 q_07 - 31 q_08 - 55 q_09 - 43 q_10 - 89 q_11 - 25 q_12 - 63 q_13
      - 84 q_14 - 55 q_15 - 2 q_16 - 40 q_17 - 40 q_18 - 71 q_19 - 47 q_20
      - 40 q_21 - 94 q_22 - q_23 - 99 q_24 - 73 q_25 - 19 q_26 - 17 q_27
      - 78 q_28 - 86 q_29 - 82 q_30 - 56 q_31 - 81 q_32 - 8 q_33 - 69 q_34
      - 75 q_35 - 76 q_36 - 97 q_37 - 17 q_38 - 49 q_39 - 20 q_40 - 15 q_41
      - 83 q_42 - 66 q_43 - 24 q_44 - 28 q_45 - 95 q_46 - 82 q_47 - 80 q_48
      - 80 q_49 - q_50 - 30 q_51 - 24 q_52 - 31 q_53 - 78 q_54 - 85 q_55
      - 84 q_56 - 47 q_57 - 68 q_58 - 30 q_59 - 76 q_60 - 60 q_61 - 42 q_62
      - 77 q_63 - 98 q_64 - 58 q_65 - 36 q_66 - 6 q_67 - 47 q_68 - 51 q_69
      - 5 q_70 - 65 q_71 - 60 q_72 - 16 q_73 - 6 q_74 - 27 q_75 - 38 q_76
      - 67 q_77 - 48 q_78 - 29 q_79 - 65 q_80 - 34 q_81 - 43 q_82 - 30 q_83
      - 72 q_84 - 51 q_85 - 80 q_86 - 88 q_87 - 36 q_88 - 9 q_89 - 80 q_90
      - 97 q_91 - 84 q_92 - 61 q_93 - 92 q_94 - 89 q_95 - 93 q_96 - 72 q_97
      - 6 q_98 - 62 q_99 - 22 q_100 - 67 q_101 - 94 q_102 - 89 q_103 - 67 q_104
      - 96 q_105 - 38 q_106 - 22 q_107 - 2 q_108 - 90 q_109 - 56 q_110
      - 61 q_111 - 13 q_112 - 23 q_113 - 4 q_114 - 56 q_115 - 37 q_116
      - 7 q_117 - 62 q_118 - 18 q_119 <= -3401
 c55: - 67 q_00 - 82 q_01 - 7 q_02 - 47 q_03 - 99 q_04 - 74 q_05 - 18 q_06
      - 93 q_07 - 80 q_08 - 62 q_09 - 7 q_10 - 71 q_11 - 7 q_12 - 37 q_13
      - 97 q_14 - 96 q_15 - 72 q_16 - 92 q_17 - 60 q_18 - 100 q_19 - 13 q_20
      - 71 q_21 - 88 q_22 - 2 q_23 - 53 q_24 - 21 q_25 - 9 q_26 - 98 q_27
      - 43 q_28 - 44 q_29 - 85 q_30 - 88 q_31 - 67 q_32 - 91 q_33 - 92 q_34
      - 98 q_35 - 8 q_36 - 33 q_37 - 27 q_38 - 58 q_39 - 98 q_40 - 49 q_41
      - 88 q_42 - 59 q_43 - 89 q_44 - 6 q_45 - 33 q_46 - 20 q_47 - 97 q_48
      - 21 q_49 - 98 q_50 - 68 q_51 - 4 q_52 - 29 q_53 - 50 q_54 - 16 q_55
      - 17 q_56 - 73 q_57 - 31 q_58 - 9 q_59 - 35 q_60 - 30 q_61 - 98 q_62
      - 81 q_63 - 32 q_64 - 41 q_65 - 29 q_66 - 39 q_67 - 27 q_68 - 41 q_69
      - 3 q_70 - 95 q_71 - 29 q_72 - 80 q_73 - 6 q_74 - 48 q_75 - 17 q_76
      - 30 q_77 - 28 q_78 - 69 q_79 - 25 q_80 - 62 q_81 - 73 q_82 - 34 q_83
      - 55 q_84 - 48 q_85 - 98 q_86 - 92 q_87 - 60 q_88 - 96 q_89 - 79 q_90
      - 66 q_91 - 90 q_92 - 62 q_93 - 81 q_94 - 45 q_95 - 72 q_96 - 84 q_97
      - 53 q_98 - 45 q_99 - 4 q_100 - 62 q_101 - 27 q_102 - 71 q_103 - 22 q_104
      - 100 q_105 - 86 q_106 - 55 q_107 - 68 q_108 - 60 q_109 - 25 q_110
      - 10 q_111 - 85 q_112 - 12 q_113 - 4 q_114 - 16 q_115 - 51 q_116
      - 35 q_117 - 42 q_118 - 58 q_119 <= -3404
Bounds
 0 <= q_00 <= 1
 0 <= q_01 <= 1
 0 <= q_02 <= 1
 0 <= q_03 <= 1
 0 <= q_04 <= 1
 0 <= q_05 <= 1
 0 <= q_06 <= 1
 0 <= q_07 <= 1
 0 <= q_08 <= 1
 0 <= q_09 <= 1
 0 <= q_10 <= 1
 0 <= q_11 <= 1
 0 <= q_12 <= 1
 0 <= q_13 <= 1
 0 <= q_14 <= 1
 0 <= q_15 <= 1
 0 <= q_16 <= 1
 0 <= q_17 <= 1
 0 <= q_18 <= 1
 0 <= q_19 <= 1
 0 <= q_20 <= 1
 0 <= q_21 <= 1
 0 <= q_22 <= 1
 0 <= q_23 <= 1
 0 <= q_24 <= 1
 0 <= q_25 <= 1
 0 <= q_26 <= 1
 0 <= q_27 <= 1
 0 <= q_28 <= 1
 0 <= q_29 <= 1
 0 <= q_30 <= 1
 0 <= q_31 <= 1
 0 <= q_32 <= 1
 0 <= q_33 <= 1
 0 <= q_34 <= 1
 0 <= q_35 <= 1
 0 <= q_36 <= 1
 0 <= q_37 <= 1
 0 <= q_38 <= 1
 0 <= q_39 <= 1
 0 <= q_40 <= 1
 0 <= q_41 <= 1
 0 <= q_42 <= 1
 0 <= q_43 <= 1
 0 <= q_44 <= 1
 0 <= q_45 <= 1
 0 <= q_46 <= 1
 0 <= q_47 <= 1
 0 <= q_48 <= 1
 0 <= q_49 <= 1
 0 <= q_50 <= 1
 0 <= q_51 <= 1
 0 <= q_52 <= 1
 0 <= q_53 <= 1
 0 <= q_54 <= 1
 0 <= q_55 <= 1
 0 <= q_56 <= 1
 0 <= q_57 <= 1
 0 <= q_58 <= 1
 0 <= q_59 <= 1
 0 <= q_60 <= 1
 0 <= q_61 <= 1
 0 <= q_62 <= 1
 0 <= q_63 <= 1
 0 <= q_64 <= 1
 0 <= q_65 <= 1
 0 <= q_66 <= 1
 0 <= q_67 <= 1
 0 <= q_68 <= 1
 0 <= q_69 <= 1
 0 <= q_70 <= 1
 0 <= q_71 <= 1
 0 <= q_72 <= 1
 0 <= q_73 <= 1
 0 <= q_74 <= 1
 0 <= q_75 <= 1
 0 <= q_76 <= 1
 0 <= q_77 <= 1
 0 <= q_78 <= 1
 0 <= q_79 <= 1
 0 <= q_80 <= 1
 0 <= q_81 <= 1
 0 <= q_82 <= 1
 0 <= q_83 <= 1
 0 <= q_84 <= 1
 0 <= q_85 <= 1
 0 <= q_86 <= 1
 0 <= q_87 <= 1
 0 <= q_88 <= 1
 0 <= q_89 <= 1
 0 <= q_90 <= 1
 0 <= q_91 <= 1
 0 <= q_92 <= 1
 0 <= q_93 <= 1
 0 <= q_94 <= 1
 0 <= q_95 <= 1
 0 <= q_96 <= 1
 0 <= q_97 <= 1
 0 <= q_98 <= 1
 0 <= q_99 <= 1
 0 <= q_100 <= 1
 0 <= q_101 <= 1
 0 <= q_102 <= 1
 0 <= q_103 <= 1
 0 <= q_104 <= 1
 0 <= q_105 <= 1
 0 <= q_106 <= 1
 0 <= q_107 <= 1
 0 <= q_108 <= 1
 0 <= q_109 <= 1
 0 <= q_110 <= 1
 0 <= q_111 <= 1
 0 <= q_112 <= 1
 0 <= q_113 <= 1
 0 <= q_114 <= 1
 0 <= q_115 <= 1
 0 <= q_116 <= 1
 0 <= q_117 <= 1
 0 <= q_118 <= 1
 0 <= q_119 <= 1
Binaries
 q_00  q_01  q_02  q_03  q_04  q_05  q_06  q_07  q_08  q_09  q_10  q_11  q_12 
 q_13  q_14  q_15  q_16  q_17  q_18  q_19  q_20  q_21  q_22  q_23  q_24  q_25 
 q_26  q_27  q_28  q_29  q_30  q_31  q_32  q_33  q_34  q_35  q_36  q_37  q_38 
 q_39  q_40  q_41  q_42  q_43  q_44  q_45  q_46  q_47  q_48  q_49  q_50  q_51 
 q_52  q_53  q_54  q_55  q_56  q_57  q_58  q_59  q_60  q_61  q_62  q_63  q_64 
 q_65  q_66  q_67  q_68  q_69  q_70  q_71  q_72  q_73  q_74  q_75  q_76  q_77 
 q_78  q_79  q_80  q_81  q_82  q_83  q_84  q_85  q_86  q_87  q_88  q_89  q_90 
 q_91  q_92  q_93  q_94  q_95  q_96  q_97  q_98  q_99  q_100  q_101  q_102 
 q_103  q_104  q_105  q_106  q_107  q_108  q_109  q_110  q_111  q_112  q_113 
 q_114  q_115  q_116  q_117  q_118  q_119 
End
